(set-logic HORN)
(declare-datatypes ((Bool_355 0)) (((false_355 ) (true_355 ))))
(declare-fun diseqBool_161 (Bool_355 Bool_355) Bool)
(declare-fun isfalse_161 (Bool_355) Bool)
(declare-fun istrue_161 (Bool_355) Bool)
(assert (isfalse_161 false_355))
(assert (istrue_161 true_355))
(assert (diseqBool_161 false_355 true_355))
(assert (diseqBool_161 true_355 false_355))
(declare-fun and_355 (Bool_355 Bool_355 Bool_355) Bool)
(declare-fun or_362 (Bool_355 Bool_355 Bool_355) Bool)
(declare-fun hence_355 (Bool_355 Bool_355 Bool_355) Bool)
(declare-fun not_360 (Bool_355 Bool_355) Bool)
(assert (and_355 false_355 false_355 false_355))
(assert (and_355 false_355 true_355 false_355))
(assert (and_355 false_355 false_355 true_355))
(assert (and_355 true_355 true_355 true_355))
(assert (or_362 false_355 false_355 false_355))
(assert (or_362 true_355 true_355 false_355))
(assert (or_362 true_355 false_355 true_355))
(assert (or_362 true_355 true_355 true_355))
(assert (hence_355 true_355 false_355 false_355))
(assert (hence_355 false_355 true_355 false_355))
(assert (hence_355 true_355 false_355 true_355))
(assert (hence_355 true_355 true_355 true_355))
(assert (not_360 true_355 false_355))
(assert (not_360 false_355 true_355))
(declare-datatypes ((Nat_602 0)) (((Z_2117 ) (S_491 (projS_206 Nat_602)))))
(declare-fun diseqNat_602 (Nat_602 Nat_602) Bool)
(declare-fun projS_207 (Nat_602 Nat_602) Bool)
(declare-fun isZ_458 (Nat_602) Bool)
(declare-fun isS_458 (Nat_602) Bool)
(assert (forall ((x_56004 Nat_602))
	(projS_207 x_56004 (S_491 x_56004))))
(assert (isZ_458 Z_2117))
(assert (forall ((x_56006 Nat_602))
	(isS_458 (S_491 x_56006))))
(assert (forall ((x_56007 Nat_602))
	(diseqNat_602 Z_2117 (S_491 x_56007))))
(assert (forall ((x_56008 Nat_602))
	(diseqNat_602 (S_491 x_56008) Z_2117)))
(assert (forall ((x_56009 Nat_602) (x_56010 Nat_602))
	(=> (diseqNat_602 x_56009 x_56010)
	    (diseqNat_602 (S_491 x_56009) (S_491 x_56010)))))
(declare-datatypes ((list_255 0)) (((nil_285 ) (cons_255 (head_510 Nat_602) (tail_510 list_255)))))
(declare-fun diseqlist_255 (list_255 list_255) Bool)
(declare-fun head_511 (Nat_602 list_255) Bool)
(declare-fun tail_511 (list_255 list_255) Bool)
(declare-fun isnil_285 (list_255) Bool)
(declare-fun iscons_255 (list_255) Bool)
(assert (forall ((x_56012 Nat_602) (x_56013 list_255))
	(head_511 x_56012 (cons_255 x_56012 x_56013))))
(assert (forall ((x_56012 Nat_602) (x_56013 list_255))
	(tail_511 x_56013 (cons_255 x_56012 x_56013))))
(assert (isnil_285 nil_285))
(assert (forall ((x_56015 Nat_602) (x_56016 list_255))
	(iscons_255 (cons_255 x_56015 x_56016))))
(assert (forall ((x_56017 Nat_602) (x_56018 list_255))
	(diseqlist_255 nil_285 (cons_255 x_56017 x_56018))))
(assert (forall ((x_56019 Nat_602) (x_56020 list_255))
	(diseqlist_255 (cons_255 x_56019 x_56020) nil_285)))
(assert (forall ((x_56021 Nat_602) (x_56022 list_255) (x_56023 Nat_602) (x_56024 list_255))
	(=> (diseqNat_602 x_56021 x_56023)
	    (diseqlist_255 (cons_255 x_56021 x_56022) (cons_255 x_56023 x_56024)))))
(assert (forall ((x_56021 Nat_602) (x_56022 list_255) (x_56023 Nat_602) (x_56024 list_255))
	(=> (diseqlist_255 x_56022 x_56024)
	    (diseqlist_255 (cons_255 x_56021 x_56022) (cons_255 x_56023 x_56024)))))
(declare-fun length_50 (Nat_602 list_255) Bool)
(assert (forall ((x_55981 Nat_602) (y_2354 Nat_602) (xs_681 list_255))
	(=> (length_50 x_55981 xs_681)
	    (length_50 (S_491 x_55981) (cons_255 y_2354 xs_681)))))
(assert (length_50 Z_2117 nil_285))
(declare-fun x_55974 (Bool_355 Nat_602 Nat_602) Bool)
(assert (forall ((x_55983 Bool_355) (x_55976 Nat_602) (z_2118 Nat_602))
	(=> (x_55974 x_55983 z_2118 x_55976)
	    (x_55974 x_55983 (S_491 z_2118) (S_491 x_55976)))))
(assert (forall ((z_2118 Nat_602))
	(x_55974 false_355 (S_491 z_2118) Z_2117)))
(assert (forall ((y_2355 Nat_602))
	(x_55974 true_355 Z_2117 y_2355)))
(declare-fun insert_33 (list_255 Nat_602 list_255) Bool)
(assert (forall ((z_2119 Nat_602) (xs_682 list_255) (x_55977 Nat_602))
	(=> (x_55974 true_355 x_55977 z_2119)
	    (insert_33 (cons_255 x_55977 (cons_255 z_2119 xs_682)) x_55977 (cons_255 z_2119 xs_682)))))
(assert (forall ((x_55991 list_255) (z_2119 Nat_602) (xs_682 list_255) (x_55977 Nat_602))
	(=>	(and (insert_33 x_55991 x_55977 xs_682)
			(x_55974 false_355 x_55977 z_2119))
		(insert_33 (cons_255 z_2119 x_55991) x_55977 (cons_255 z_2119 xs_682)))))
(assert (forall ((x_55977 Nat_602))
	(insert_33 (cons_255 x_55977 nil_285) x_55977 nil_285)))
(declare-fun isort_31 (list_255 list_255) Bool)
(assert (forall ((x_55993 list_255) (x_55994 list_255) (y_2357 Nat_602) (xs_683 list_255))
	(=>	(and (isort_31 x_55994 xs_683)
			(insert_33 x_55993 y_2357 x_55994))
		(isort_31 x_55993 (cons_255 y_2357 xs_683)))))
(assert (isort_31 nil_285 nil_285))
(assert (forall ((x_55997 list_255) (x_55998 Nat_602) (x_55999 Nat_602) (x_55979 list_255))
	(=>	(and true
			(diseqNat_602 x_55998 x_55999)
			(isort_31 x_55997 x_55979)
			(length_50 x_55998 x_55997)
			(length_50 x_55999 x_55979))
		false)))
(check-sat)
